Version identifier: 20.1.0.0 | 2020-11-10 | 9bedb6d68
Tried aggregator 2 times.
MIP Presolve eliminated 1372 rows and 828 columns.
MIP Presolve modified 2598 coefficients.
Aggregator did 148 substitutions.
Reduced MIP has 1036 rows, 831 columns, and 3291 nonzeros.
Reduced MIP has 190 binaries, 641 generals, 0 SOSs, and 0 indicators.
Presolve time = 0.01 sec. (5.56 ticks)
Found incumbent of value 52.000000 after 0.02 sec. (9.43 ticks)
Probing fixed 30 vars, tightened 248 bounds.
Probing time = 0.00 sec. (0.95 ticks)
Tried aggregator 1 time.
Detecting symmetries...
MIP Presolve eliminated 450 rows and 30 columns.
MIP Presolve modified 42 coefficients.
Reduced MIP has 586 rows, 801 columns, and 1911 nonzeros.
Reduced MIP has 268 binaries, 533 generals, 0 SOSs, and 0 indicators.
Presolve time = 0.00 sec. (2.17 ticks)
Probing time = 0.00 sec. (0.16 ticks)
Clique table members: 31.
MIP emphasis: balance optimality and feasibility.
MIP search method: dynamic search.
Parallel mode: deterministic, using up to 24 threads.
Root relaxation solution time = 0.01 sec. (1.33 ticks)

        Nodes                                         Cuts/
   Node  Left     Objective  IInf  Best Integer    Best Bound    ItCnt     Gap

*     0+    0                           52.0000        0.0000           100.00%
*     0+    0                           28.0000        0.0000           100.00%
      0     0        0.0000    38       28.0000        0.0000      163  100.00%
*     0+    0                           12.0000        0.0000           100.00%
      0     0        1.1538   127       12.0000     Cuts: 130      415   90.38%
*     0+    0                           10.0000        1.1538            88.46%
      0     0        1.9527   253       10.0000      Cuts: 82      558   80.47%
      0     0        2.1111   233       10.0000     Cuts: 108      617   78.89%
      0     0        2.1786   240       10.0000      Cuts: 64      685   78.21%
      0     0        2.1944   234       10.0000      Cuts: 47      714   78.06%
      0     0        2.5114   216       10.0000      Cuts: 57      772   74.89%
      0     0        2.5122   225       10.0000      Cuts: 59      796   74.88%
      0     0        2.5139   226       10.0000      Cuts: 30      826   74.86%
      0     0        2.5278   206       10.0000      Cuts: 39      849   74.72%
      0     0        2.5528   216       10.0000      Cuts: 43      882   74.47%
      0     0        2.6558   221       10.0000      Cuts: 35      920   73.44%
      0     0        2.8942   230       10.0000      Cuts: 54     1041   71.06%
      0     0        3.0417   231       10.0000     Cuts: 144     1129   69.58%
      0     0        3.0526   234       10.0000      Cuts: 46     1151   69.47%
*     0+    0                            9.0000        3.0526            66.08%
      0     0        cutoff              9.0000        9.0000     1192    0.00%
Elapsed time = 0.22 sec. (98.74 ticks, tree = 0.01 MB, solutions = 5)

Cover cuts applied:  3
Implied bound cuts applied:  29
Flow cuts applied:  4
Mixed integer rounding cuts applied:  31
Zero-half cuts applied:  115
Lift and project cuts applied:  1
Gomory fractional cuts applied:  9

Root node processing (before b&c):
  Real time             =    0.22 sec. (98.85 ticks)
Parallel b&c, 24 threads:
  Real time             =    0.00 sec. (0.00 ticks)
  Sync time (average)   =    0.00 sec.
  Wait time (average)   =    0.00 sec.
                          ------------
Total (root+branch&cut) =    0.22 sec. (98.85 ticks)

Solution status = Optimal
Solution LB = 9
Solution UB = 9
Runtime = 0.230165 seconds
	Command being timed: "/home/min/git_repos/CS598MEBProject/CNT-ILP/build/cnt -s 2 ./output/k6_n30/simC_c1_k6_n30_u1_s2_del02.input-right.cnp"
	User time (seconds): 1.11
	System time (seconds): 0.06
	Percent of CPU this job got: 475%
	Elapsed (wall clock) time (h:mm:ss or m:ss): 0:00.24
	Average shared text size (kbytes): 0
	Average unshared data size (kbytes): 0
	Average stack size (kbytes): 0
	Average total size (kbytes): 0
	Maximum resident set size (kbytes): 68472
	Average resident set size (kbytes): 0
	Major (requiring I/O) page faults: 0
	Minor (reclaiming a frame) page faults: 14453
	Voluntary context switches: 2505
	Involuntary context switches: 99
	Swaps: 0
	File system inputs: 0
	File system outputs: 16
	Socket messages sent: 0
	Socket messages received: 0
	Signals delivered: 0
	Page size (bytes): 4096
	Exit status: 0
